4º Periodo/Pesquisa Operacional/Arenales2.mps
NAME Racao2
ROWS
 N  OBJ
 G  c1      
 G  c2      
 G  c3      
 G  c4      
 E  c5      
 G  c6      
COLUMNS
    x1        OBJ       6
    x1        c2        0.1
    x1        c3        0.2
    x1        c4        0.7
    x1        c5        1
    x1        c6        1
    x2        OBJ       7
    x2        c1        0.05
    x2        c2        0.35
    x2        c3        0.6
    x2        c5        1
    x2        c6        1
    x3        OBJ       18
    x3        c1        0.2
    x3        c2        0.78
    x3        c3        0.02
    x3        c5        1
    x3        c6        1
RHS
    RHS1      c1        10
    RHS1      c2        0.2
    RHS1      c3        0.35
    RHS1      c4        0.35
    RHS1      c5        1
BOUNDS
ENDATA
